17	4	3
13	13	12	14	12	20	14	
0	0	0	0	0	3	9	2	3	4	7	3	2	3	4
9	6	2	1	10	1	1	1	9	2	9	3	8	14	17
7	5	0	1	7	3	1	4	9	3	5	3	5	6	16
9	9	0	0	0	1	7	9	5	3	7	2	7	12
3	0	2	10	3	5	8	10	7	10	5	2	11	17
100	6	5	0	0	7	2	3	8	5	7	2	14	17
225	4	0	0	7	5	5	7	6	4	9	1	17
250	7	0	0	3	4	7	9	8	5	1	3	9	10	13
75	6	9	7	0	3	6	7	1	10	9	2	15	17
100	6	3	0	0	7	5	7	7	2	6	2	16	17
175	0	3	8	0	2	8	8	5	6	2	1	17
200	3	1	2	1	1	10	6	8	5	10	2	15	17
6	4	0	3	8	6	9	7	5	7	1	2	15	17
6	1	4	4	5	5	9	7	2	10	7	1	17
10	4	5	0	3	10	7	1	7	3	3	1	17
9	2	2	7	0	2	5	10	9	9	5	1	17
0	0	0	0	0	10	10	4	6	8	9	0
